Route #1: 0 63 39 11 23 55 38 50 19 0
Route #2: 0 42 36 6 32 67 29 3 40 53 25 0
Route #3: 0 58 10 24 18 28 57 17 0
Route #4: 0 49 26 9 16 0
Route #5: 0 54 14 13 46 66 35 0
Route #6: 0 60 47 7 43 65 27 0
Route #7: 0 5 62 21 30 59 44 34 48 12 45 0
Route #8: 0 52 20 61 51 22 2 8 41 37 0
Route #9: 0 31 64 4 1 56 33 15 0
Cost 1380:
